StudentsNr = 10;
InstructorsNr = 73;
DaysNr = 1;
SlotsPerDay = 15;
AvailabilitySlotsLenght = 5;
RoomNr = 1;
ProgrammNr = 1;
DegreeNr = 3;
RolesNr = 2;
CoursesNr = 5;
InstructorsProgramm = [{1}, {1}, {1}, {1}, {1}, {1}, {1}, {1}, {1}, {1}, {1}, {1}, {1}, {1}, {1}, {1}, {1}, {1}, {1}, {1}, {1}, {1}, {1}, {1}, {1}, {1}, {1}, {1}, {1}, {1}, {1}, {1}, {1}, {1}, {1}, {1}, {1}, {1}, {1}, {1}, {1}, {1}, {1}, {1}, {1}, {1}, {1}, {1}, {1}, {1}, {1}, {1}, {1}, {1}, {1}, {1}, {1}, {1}, {1}, {1}, {1}, {1}, {1}, {1}, {1}, {1}, {1}, {1}, {1}, {1}, {1}, {1}, {1}];
InstructorRolesPerProgramm = [|{2, 4, 6, 9, 11, 13, 15, 16, 22, 26, 29, 32, 35, 39, 40, 42, 43, 46, 48, 55, 58, 59, 60, 61, 63, 65, 69, 72}, {1, 2, 6, 9, 12, 13, 14, 15, 17, 19, 20, 22, 23, 24, 25, 26, 28, 29, 32, 36, 37, 38, 42, 43, 49, 50, 51, 55, 56, 59, 61, 62, 63, 64, 66, 67, 68, 72, 73}|];
InstructorsAvailability = [|1, 1, 1, |1, 1, 1, |0, 0, 1, |0, 1, 0, |0, 1, 1, |0, 1, 1, |0, 1, 1, |0, 1, 1, |1, 1, 1, |1, 0, 1, |1, 1, 1, |0, 1, 1, |0, 1, 0, |0, 1, 0, |1, 1, 0, |1, 1, 1, |0, 0, 1, |0, 1, 1, |0, 0, 1, |0, 1, 0, |0, 1, 1, |1, 1, 0, |1, 0, 0, |1, 1, 1, |0, 1, 1, |0, 1, 1, |1, 1, 1, |1, 1, 0, |1, 1, 1, |1, 1, 1, |1, 1, 1, |0, 0, 0, |1, 0, 1, |0, 0, 0, |1, 1, 1, |0, 0, 1, |1, 1, 1, |0, 0, 1, |0, 1, 0, |0, 0, 1, |0, 0, 0, |0, 1, 1, |0, 1, 1, |0, 1, 1, |0, 1, 1, |0, 0, 1, |0, 0, 0, |1, 0, 0, |0, 0, 1, |1, 1, 0, |1, 1, 1, |1, 1, 1, |1, 1, 1, |0, 1, 1, |1, 1, 1, |1, 1, 1, |1, 1, 0, |0, 1, 1, |0, 1, 1, |1, 1, 0, |0, 1, 1, |0, 1, 1, |0, 0, 0, |0, 1, 1, |1, 1, 0, |1, 0, 0, |1, 1, 1, |1, 1, 1, |1, 1, 1, |0, 1, 1, |1, 0, 0, |1, 0, 1, |0, 0, 1|];
StudentsProgramm = [1, 1, 1, 1, 1, 1, 1, 1, 1, 1];
StudentsDegree = [3, 3, 1, 2, 2, 1, 2, 2, 3, 1];
StudentsSupervisorId = [63, 49, 33, 56, 63, 53, 1, 58, 26, 30];
StudentsCourseIds = [{1, 2, 3, 4, 5}, {1, 2, 3, 4, 5}, {1, 4, 5}, {1, 3, 4}, {2, 3, 4}, {1, 2, 3}, {2, 3, 5}, {1, 3, 4}, {1, 2, 3, 4, 5}, {1, 2, 4}];
StudentsAvailability = [|1, 1, 1, |0, 1, 1, |0, 1, 1, |0, 0, 0, |1, 0, 0, |1, 1, 1, |0, 0, 1, |0, 1, 1, |0, 0, 0, |1, 0, 0|];
TheoryticalMinCard = [0, 0, 0, 0, 0, 0, 0, 0, 0, 0];
CoursesInstructorIds = [{5, 11, 14, 19, 21, 25, 31, 37, 40, 42, 43, 50, 58}, {2, 8, 15, 17, 20, 24, 25, 31, 34, 36, 40, 45, 46, 48, 49, 50, 51, 55, 56, 57, 62, 66}, {3, 4, 5, 8, 10, 11, 12, 13, 15, 16, 17, 18, 19, 20, 24, 25, 26, 28, 30, 31, 32, 36, 37, 39, 41, 42, 43, 44, 46, 47, 48, 49, 53, 56, 57, 60, 61, 62, 63, 64, 65, 67, 68, 69, 70, 71, 72, 73}, {2, 3, 4, 5, 9, 10, 11, 12, 13, 16, 17, 19, 20, 21, 24, 25, 29, 30, 33, 35, 36, 37, 38, 44, 45, 47, 48, 50, 53, 55, 56, 57, 58, 62, 63, 64, 65, 66, 67, 68, 69, 70, 71, 73}, {1, 6, 10, 12, 13, 14, 15, 17, 20, 24, 25, 27, 29, 31, 33, 34, 35, 38, 39, 40, 44, 57, 61, 62, 63, 64, 66, 69, 72, 73}];
RolesDemands = [9, 5];
RolesContinuity = [];
ExamLen = [1, 1, 2, 2, 2, 2, 2, 2, 1, 2];
LunchTsMinLen = 1;
LunchStarts = [3..9];
SupervisorAvailable = 5;
OptimalLunchLenght = [3, 1];
OptimalStartTs = [2, 0];
OptimalFinishTs = [2, 15];
MinimizeRooms = 500;
RolesSoftContinuity = [|1, 2|2, 4|];
SameDegreeInRoom = 10;
Mergeability = 2;
